433,218
205,153
232,315
158,74
84,196
419,133
359,37
59,146
60,345
226,213
194,310
589,144
55,142
266,349
100,97
521,95
533,279
586,142
377,103
359,223
19,70
236,173
451,293
565,138
464,350
489,265
544,268
252,362
90,246
524,265
